Gurobi Optimizer version 9.1.0 build v9.1.0rc0 (linux64)
Thread count: 8 physical cores, 16 logical processors, using up to 16 threads
Optimize a model with 383414 rows, 360720 columns and 2101770 nonzeros
Model fingerprint: 0xf8c728a1
Variable types: 0 continuous, 360720 integer (360720 binary)
Coefficient statistics:
  Matrix range     [1e+00, 1e+00]
  Objective range  [1e+01, 1e+05]
  Bounds range     [1e+00, 1e+00]
  RHS range        [1e+00, 1e+03]
Presolve removed 10030 rows and 30 columns (presolve time = 6s) ...
Presolve added 0 rows and 9970 columns
Presolve removed 30 rows and 0 columns
Presolve time: 8.21s
Presolved: 383384 rows, 370690 columns, 1531710 nonzeros
Variable types: 0 continuous, 370690 integer (370690 binary)
Found heuristic solution: objective 1014813.0000

Concurrent LP optimizer: primal simplex, dual simplex, and barrier
Showing barrier log only...

Root barrier log...

Ordering time: 0.13s

Barrier statistics:
 Dense cols : 360
 AA' NZ     : 1.188e+06
 Factor NZ  : 7.430e+06 (roughly 400 MBytes of memory)
 Factor Ops : 2.001e+09 (less than 1 second per iteration)
 Threads    : 6

                  Objective                Residual
Iter       Primal          Dual         Primal    Dual     Compl     Time
   0   5.20205926e+08 -7.82569776e+08  4.05e+02 2.96e+01  3.26e+04    17s
   1   5.61353483e+07 -8.43462496e+08  5.98e+01 2.22e+04  4.66e+03    17s
   2   4.22142132e+06 -4.61533584e+08  3.44e+00 8.21e+02  5.96e+02    18s
   3   1.41698627e+06 -2.62293572e+08  3.83e-01 4.03e+02  2.51e+02    20s
   4   1.26205449e+06 -1.46661123e+08  2.05e-01 2.14e+02  1.38e+02    20s
   5   1.09158155e+06 -6.54965798e+07  1.16e-02 9.23e+01  6.00e+01    21s
   6   1.05352999e+06 -9.72796881e+06  2.45e-04 1.38e+01  9.69e+00    22s
   7   1.02413663e+06 -8.86125428e+05  1.74e-04 5.20e+00  1.72e+00    23s
   8   9.68088925e+05 -1.16041745e+05  1.28e-04 2.79e+00  9.74e-01    24s
   9   9.35783768e+05  3.19597438e+05  1.04e-04 1.25e+00  5.54e-01    25s
  10   8.87646865e+05  5.49487589e+05  7.26e-05 4.80e-01  3.04e-01    27s
  11   8.71183151e+05  6.21008885e+05  6.43e-05 2.91e-01  2.25e-01    28s
  12   8.50631574e+05  6.66350564e+05  5.50e-05 1.67e-01  1.66e-01    29s
  13   8.28568919e+05  6.94674473e+05  4.59e-05 9.06e-02  1.20e-01    30s
  14   8.13777237e+05  7.01192665e+05  3.98e-05 7.24e-02  1.01e-01    31s
  15   8.01598915e+05  7.11618275e+05  3.49e-05 4.59e-02  8.08e-02    32s
  16   7.80627222e+05  7.15467271e+05  2.58e-05 3.55e-02  5.85e-02    33s
  17   7.70047979e+05  7.18851233e+05  2.02e-05 2.77e-02  4.60e-02    34s
  18   7.62875028e+05  7.22489578e+05  1.64e-05 1.94e-02  3.63e-02    35s
  19   7.55729739e+05  7.24921899e+05  1.32e-05 1.47e-02  2.77e-02    36s
  20   7.49255428e+05  7.26544411e+05  9.66e-06 1.11e-02  2.04e-02    37s
  21   7.46198935e+05  7.27987318e+05  8.04e-06 8.06e-03  1.64e-02    38s
  22   7.42420186e+05  7.28937452e+05  6.10e-06 6.11e-03  1.21e-02    40s
  23   7.39771015e+05  7.29559595e+05  4.72e-06 4.87e-03  9.18e-03    41s
  24   7.38637794e+05  7.30075576e+05  4.12e-06 3.85e-03  7.69e-03    42s
  25   7.37430696e+05  7.30443085e+05  3.39e-06 3.13e-03  6.28e-03    43s
  26   7.36048314e+05  7.30870246e+05  2.56e-06 2.32e-03  4.65e-03    44s
  27   7.35210706e+05  7.31119396e+05  2.06e-06 1.86e-03  3.68e-03    45s
  28   7.34601623e+05  7.31392869e+05  1.71e-06 1.39e-03  2.88e-03    46s
  29   7.34066668e+05  7.31663686e+05  1.33e-06 9.26e-04  2.16e-03    47s
  30   7.33683394e+05  7.31833977e+05  1.08e-06 6.37e-04  1.66e-03    48s
  31   7.33359668e+05  7.31906360e+05  8.68e-07 5.05e-04  1.31e-03    49s
  32   7.33208453e+05  7.31937265e+05  7.52e-07 4.50e-04  1.14e-03    50s
  33   7.32977660e+05  7.31967392e+05  5.94e-07 3.98e-04  9.08e-04    51s
  34   7.32899491e+05  7.31993537e+05  5.34e-07 3.56e-04  8.14e-04    52s
  35   7.32822358e+05  7.32036418e+05  4.77e-07 2.88e-04  7.06e-04    53s
  36   7.32664885e+05  7.32067788e+05  3.63e-07 2.34e-04  5.37e-04    54s
  37   7.32581253e+05  7.32086592e+05  3.01e-07 2.02e-04  4.45e-04    55s
  38   7.32544145e+05  7.32116344e+05  2.72e-07 1.56e-04  3.84e-04    57s
  39   7.32508821e+05  7.32135484e+05  2.46e-07 1.26e-04  3.36e-04    58s
  40   7.32441741e+05  7.32146588e+05  1.95e-07 1.07e-04  2.65e-04    59s
  41   7.32397259e+05  7.32158540e+05  1.59e-07 8.76e-05  2.15e-04    60s
  42   7.32352857e+05  7.32168760e+05  1.21e-07 7.10e-05  1.65e-04    61s
  43   7.32329644e+05  7.32177511e+05  1.01e-07 5.80e-05  1.37e-04    62s
  44   7.32305940e+05  7.32191285e+05  8.14e-08 3.74e-05  1.03e-04    63s
  45   7.32286253e+05  7.32196263e+05  6.40e-08 2.95e-05  8.09e-05    64s
  46   7.32273025e+05  7.32199814e+05  5.27e-08 2.39e-05  6.58e-05    65s
  47   7.32264762e+05  7.32204887e+05  4.53e-08 1.71e-05  5.38e-05    66s
  48   7.32254880e+05  7.32206909e+05  3.72e-08 1.40e-05  4.31e-05    67s
  49   7.32246558e+05  7.32208619e+05  2.93e-08 1.14e-05  3.41e-05    68s
  50   7.32238625e+05  7.32210105e+05  2.16e-08 9.16e-06  2.56e-05    69s
  51   7.32233556e+05  7.32211656e+05  1.70e-08 6.96e-06  1.97e-05    70s
  52   7.32230198e+05  7.32212828e+05  1.36e-08 5.21e-06  1.56e-05    71s
  53   7.32227536e+05  7.32213932e+05  1.09e-08 3.77e-06  1.22e-05    72s
  54   7.32225363e+05  7.32214411e+05  9.06e-09 3.10e-06  9.84e-06    73s
  55   7.32224059e+05  7.32215081e+05  7.82e-09 2.16e-06  8.07e-06    74s
  56   7.32222124e+05  7.32215221e+05  5.86e-09 2.00e-06  6.20e-06    75s
  57   7.32220918e+05  7.32215689e+05  4.61e-09 1.45e-06  4.70e-06    76s
  58   7.32220232e+05  7.32215964e+05  3.81e-09 1.15e-06  3.84e-06    77s
  59   7.32219412e+05  7.32216097e+05  2.83e-09 9.81e-07  2.98e-06    78s
  60   7.32218662e+05  7.32216232e+05  1.97e-09 8.14e-07  2.18e-06    78s
  61   7.32218331e+05  7.32216431e+05  1.59e-09 5.73e-07  1.71e-06    79s
  62   7.32218007e+05  7.32216597e+05  1.20e-09 3.71e-07  1.27e-06    80s
  63   7.32217587e+05  7.32216681e+05  7.26e-10 2.77e-07  8.14e-07    81s
  64   7.32217445e+05  7.32216808e+05  5.64e-10 1.43e-07  5.73e-07    82s
  65   7.32217392e+05  7.32216886e+05  5.06e-10 6.02e-08  4.55e-07    83s
  66   7.32217223e+05  7.32216899e+05  3.13e-10 4.37e-08  2.91e-07    84s
  67   7.32217176e+05  7.32216914e+05  2.59e-10 2.89e-08  2.36e-07    85s
  68   7.32217099e+05  7.32216933e+05  1.71e-10 2.43e-09  1.49e-07    86s
  69   7.32217021e+05  7.32216939e+05  8.52e-11 8.30e-10  7.37e-08    87s
  70   7.32217021e+05  7.32216939e+05  2.60e-08 8.27e-10  7.36e-08    88s
  71   7.32217018e+05  7.32216939e+05  2.51e-08 3.12e-08  7.09e-08    89s
  72   7.32216998e+05  7.32216940e+05  2.40e-08 6.56e-08  5.25e-08    90s
  73   7.32216998e+05  7.32216940e+05  2.38e-08 6.38e-08  5.21e-08    91s
  74   7.32216995e+05  7.32216940e+05  2.93e-08 6.89e-08  4.90e-08    91s
  75   7.32216994e+05  7.32216940e+05  3.91e-08 1.19e-08  4.85e-08    92s

Barrier solved model in 75 iterations and 92.17 seconds
Optimal objective 7.32216994e+05


Root crossover log...

   50077 DPushes remaining with DInf 0.0000000e+00                93s
    3023 DPushes remaining with DInf 0.0000000e+00                98s
    2127 DPushes remaining with DInf 0.0000000e+00               100s
    1196 DPushes remaining with DInf 0.0000000e+00               105s
     135 DPushes remaining with DInf 0.0000000e+00               110s
       0 DPushes remaining with DInf 0.0000000e+00               111s

    3883 PPushes remaining with PInf 0.0000000e+00               111s
       0 PPushes remaining with PInf 2.3527105e-05               112s

  Push phase complete: Pinf 2.3527105e-05, Dinf 2.4123943e-09    112s


Root simplex log...

Iteration    Objective       Primal Inf.    Dual Inf.      Time
   15042    7.3221694e+05   2.352711e-05   0.000000e+00    113s
   15047    7.3221694e+05   0.000000e+00   0.000000e+00    113s
   15047    7.3221694e+05   0.000000e+00   0.000000e+00    113s

Solved with barrier

Root relaxation: objective 7.322169e+05, 15047 iterations, 99.85 seconds
Total elapsed time = 117.99s

    Nodes    |    Current Node    |     Objective Bounds      |     Work
 Expl Unexpl |  Obj  Depth IntInf | Incumbent    BestBd   Gap | It/Node Time

     0     0 732216.943    0 50197 1014813.00 732216.943  27.8%     -  120s
H    0     0                    772379.00000 732216.943  5.20%     -  126s
H    0     0                    770323.00000 732216.943  4.95%     -  130s
H    0     0                    768115.00000 732216.943  4.67%     -  136s
     0     0 732218.693    0 50210 768115.000 732218.693  4.67%     -  191s
H    0     0                    768104.00000 732218.693  4.67%     -  200s
H    0     0                    764049.00000 732218.693  4.17%     -  208s
     0     0 732218.914    0 50206 764049.000 732218.914  4.17%     -  217s
     0     0 732219.274    0 50212 764049.000 732219.274  4.17%     -  228s
     0     0 732219.329    0 50216 764049.000 732219.329  4.17%     -  232s
     0     0 732220.635    0 50191 764049.000 732220.635  4.17%     -  280s
H    0     0                    764048.00000 732220.635  4.17%     -  288s
H    0     0                    764047.00000 732220.635  4.17%     -  292s
H    0     0                    763448.00000 732220.635  4.09%     -  295s
     0     0          -    0      763448.000 732220.635  4.09%     -  300s

Cutting planes:
  Gomory: 6

Explored 1 nodes (23404 simplex iterations) in 300.06 seconds
Thread count was 16 (of 16 available processors)

Solution count 9: 763448 764047 764048 ... 1.01481e+06

Time limit reached
Best objective 7.634480000000e+05, best bound 7.322206353428e+05, gap 4.0903%

User-callback calls 39372, time in user-callback 0.49 sec
['/opt/local/stow/gurobi910/linux64/lib/libgurobi91.so']
Result: runtime=300.01sec; objective=763448; gap=0.0409%
Solution written to /autofs/unityaccount/cremi/mdeboute/Bureau/multi-period-flp/solution//instSingle_I30_J1000_T12_0_result.txt
